N = 8;
Capacity = 4;
nbVehicles = 10;
maxVisitsPerCustomer = 2;
ItemsPerCustomer = [2, 7, 4, 3, 8, 3, 6, 7];
maxItemsPerCustomer = 8;
binCapacity = 50;
SizesOfItems = [|
  38, 19, 0, 0, 0, 0, 0, 0
| 40, 39, 31, 31, 22, 21, 19, 0
| 36, 25, 21, 17, 0, 0, 0, 0
| 50, 50, 50, 0, 0, 0, 0, 0
| 40, 24, 24, 24, 17, 17, 12, 10
| 28, 27, 15, 0, 0, 0, 0, 0
| 38, 32, 30, 26, 13, 12, 0, 0
| 25, 21, 21, 19, 18, 17, 14, 0
|];
Distance = [|
  0, 10, 42, 61, 64, 55, 48, 41, 40
| 10, 0, 51, 55, 71, 62, 57, 49, 48
| 42, 51, 0, 88, 56, 51, 24, 25, 24
| 61, 55, 88, 0, 125, 116, 104, 69, 68
| 64, 71, 56, 125, 0, 10, 32, 79, 78
| 55, 62, 51, 116, 10, 0, 29, 73, 72
| 48, 57, 24, 104, 32, 29, 0, 48, 48
| 41, 49, 25, 69, 79, 73, 48, 0, 1
| 40, 48, 24, 68, 78, 72, 48, 1, 0
|];
